c colouring generated by benchmark framework
p edge 500 58862
v 1 45
v 2 0
v 3 93
v 4 131
v 5 76
v 6 68
v 7 74
v 8 4
v 9 91
v 10 47
v 11 15
v 12 40
v 13 13
v 14 65
v 15 91
v 16 78
v 17 35
v 18 84
v 19 102
v 20 70
v 21 29
v 22 2
v 23 128
v 24 29
v 25 81
v 26 120
v 27 40
v 28 109
v 29 93
v 30 113
v 31 102
v 32 51
v 33 78
v 34 40
v 35 108
v 36 64
v 37 2
v 38 39
v 39 115
v 40 42
v 41 125
v 42 19
v 43 28
v 44 130
v 45 63
v 46 98
v 47 107
v 48 16
v 49 117
v 50 21
v 51 92
v 52 83
v 53 42
v 54 57
v 55 35
v 56 128
v 57 42
v 58 111
v 59 33
v 60 61
v 61 38
v 62 50
v 63 46
v 64 90
v 65 53
v 66 48
v 67 57
v 68 100
v 69 1
v 70 32
v 71 61
v 72 64
v 73 9
v 74 36
v 75 116
v 76 36
v 77 19
v 78 77
v 79 42
v 80 103
v 81 89
v 82 15
v 83 41
v 84 77
v 85 18
v 86 4
v 87 56
v 88 18
v 89 7
v 90 18
v 91 127
v 92 87
v 93 62
v 94 81
v 95 73
v 96 9
v 97 36
v 98 20
v 99 67
v 100 7
v 101 95
v 102 101
v 103 28
v 104 1
v 105 10
v 106 121
v 107 62
v 108 0
v 109 30
v 110 56
v 111 89
v 112 30
v 113 115
v 114 41
v 115 112
v 116 51
v 117 96
v 118 16
v 119 69
v 120 21
v 121 0
v 122 42
v 123 12
v 124 34
v 125 65
v 126 21
v 127 22
v 128 78
v 129 8
v 130 47
v 131 80
v 132 88
v 133 88
v 134 101
v 135 21
v 136 118
v 137 7
v 138 1
v 139 136
v 140 10
v 141 73
v 142 105
v 143 132
v 144 79
v 145 7
v 146 111
v 147 134
v 148 106
v 149 13
v 150 52
v 151 84
v 152 41
v 153 25
v 154 85
v 155 76
v 156 50
v 157 78
v 158 92
v 159 101
v 160 20
v 161 10
v 162 5
v 163 107
v 164 4
v 165 96
v 166 16
v 167 14
v 168 33
v 169 74
v 170 32
v 171 54
v 172 120
v 173 83
v 174 96
v 175 12
v 176 88
v 177 117
v 178 23
v 179 129
v 180 90
v 181 27
v 182 10
v 183 123
v 184 8
v 185 63
v 186 122
v 187 1
v 188 39
v 189 121
v 190 2
v 191 86
v 192 45
v 193 84
v 194 77
v 195 108
v 196 79
v 197 46
v 198 119
v 199 70
v 200 46
v 201 26
v 202 88
v 203 40
v 204 0
v 205 70
v 206 105
v 207 14
v 208 93
v 209 15
v 210 83
v 211 22
v 212 33
v 213 76
v 214 97
v 215 84
v 216 5
v 217 28
v 218 41
v 219 66
v 220 113
v 221 12
v 222 72
v 223 24
v 224 6
v 225 126
v 226 95
v 227 25
v 228 25
v 229 86
v 230 127
v 231 45
v 232 126
v 233 3
v 234 125
v 235 110
v 236 9
v 237 68
v 238 40
v 239 24
v 240 54
v 241 112
v 242 35
v 243 135
v 244 27
v 245 26
v 246 30
v 247 0
v 248 99
v 249 39
v 250 52
v 251 85
v 252 52
v 253 58
v 254 82
v 255 67
v 256 59
v 257 104
v 258 80
v 259 128
v 260 98
v 261 122
v 262 17
v 263 8
v 264 69
v 265 87
v 266 14
v 267 86
v 268 64
v 269 87
v 270 80
v 271 65
v 272 4
v 273 37
v 274 23
v 275 69
v 276 114
v 277 99
v 278 109
v 279 20
v 280 6
v 281 44
v 282 91
v 283 15
v 284 6
v 285 48
v 286 83
v 287 38
v 288 29
v 289 124
v 290 60
v 291 34
v 292 132
v 293 37
v 294 66
v 295 31
v 296 8
v 297 34
v 298 118
v 299 31
v 300 7
v 301 80
v 302 98
v 303 55
v 304 25
v 305 75
v 306 79
v 307 3
v 308 31
v 309 61
v 310 2
v 311 3
v 312 30
v 313 106
v 314 43
v 315 97
v 316 125
v 317 2
v 318 35
v 319 80
v 320 137
v 321 47
v 322 136
v 323 24
v 324 18
v 325 85
v 326 35
v 327 109
v 328 138
v 329 32
v 330 82
v 331 38
v 332 44
v 333 75
v 334 67
v 335 129
v 336 56
v 337 58
v 338 53
v 339 57
v 340 71
v 341 79
v 342 67
v 343 11
v 344 49
v 345 82
v 346 133
v 347 138
v 348 27
v 349 33
v 350 61
v 351 106
v 352 37
v 353 57
v 354 100
v 355 23
v 356 31
v 357 103
v 358 122
v 359 7
v 360 19
v 361 75
v 362 104
v 363 46
v 364 58
v 365 81
v 366 48
v 367 51
v 368 26
v 369 69
v 370 5
v 371 55
v 372 68
v 373 81
v 374 121
v 375 50
v 376 43
v 377 68
v 378 23
v 379 9
v 380 89
v 381 131
v 382 107
v 383 105
v 384 83
v 385 124
v 386 40
v 387 94
v 388 82
v 389 28
v 390 22
v 391 130
v 392 44
v 393 46
v 394 114
v 395 124
v 396 18
v 397 13
v 398 49
v 399 47
v 400 132
v 401 43
v 402 32
v 403 93
v 404 24
v 405 63
v 406 94
v 407 11
v 408 17
v 409 54
v 410 114
v 411 58
v 412 14
v 413 1
v 414 102
v 415 108
v 416 39
v 417 112
v 418 38
v 419 77
v 420 99
v 421 4
v 422 87
v 423 36
v 424 3
v 425 113
v 426 72
v 427 26
v 428 49
v 429 59
v 430 16
v 431 52
v 432 32
v 433 60
v 434 19
v 435 20
v 436 71
v 437 12
v 438 53
v 439 124
v 440 89
v 441 1
v 442 24
v 443 92
v 444 62
v 445 55
v 446 97
v 447 63
v 448 136
v 449 8
v 450 94
v 451 103
v 452 110
v 453 71
v 454 11
v 455 48
v 456 73
v 457 66
v 458 60
v 459 44
v 460 94
v 461 100
v 462 72
v 463 17
v 464 72
v 465 134
v 466 70
v 467 56
v 468 116
v 469 61
v 470 22
v 471 29
v 472 64
v 473 3
v 474 113
v 475 55
v 476 54
v 477 74
v 478 6
v 479 73
v 480 44
v 481 59
v 482 19
v 483 123
v 484 118
v 485 49
v 486 76
v 487 27
v 488 11
v 489 34
v 490 75
v 491 59
v 492 90
v 493 37
v 494 5
v 495 26
v 496 59
v 497 86
v 498 95
v 499 23
v 500 43
